
Gurobi 10.0.0 (linux64) logging started Sat Nov 19 12:22:53 2022

Set parameter LogFile to value "../results/k03_n100_d015/k03_n121_d027_queen11_11_A-MILO_log.txt"
Gurobi Optimizer version 10.0.0 build v10.0.0rc2 (linux64)

CPU model: Intel(R) Xeon(R) CPU E5-2630 v4 @ 2.20GHz, instruction set [SSE2|AVX|AVX2]
Thread count: 20 physical cores, 40 logical processors, using up to 10 threads

Optimize a model with 17941 rows, 2343 columns and 53823 nonzeros
Model fingerprint: 0x8275bd3a
Coefficient statistics:
  Matrix range     [1e+00, 1e+00]
  Objective range  [1e+00, 1e+00]
  Bounds range     [1e+00, 1e+00]
  RHS range        [1e+00, 2e+00]
Presolve removed 211 rows and 33 columns
Presolve time: 0.02s
Presolved: 17730 rows, 2310 columns, 53130 nonzeros

Concurrent LP optimizer: primal simplex, dual simplex, and barrier
Showing barrier log only...

Ordering time: 0.00s

Barrier statistics:
 AA' NZ     : 2.680e+03
 Factor NZ  : 5.314e+03 (roughly 3 MB of memory)
 Factor Ops : 1.076e+05 (less than 1 second per iteration)
 Threads    : 1

                  Objective                Residual
Iter       Primal          Dual         Primal    Dual     Compl     Time
   0   9.26864481e+03  8.90275330e+02  2.69e+00 1.11e-16  2.51e+00     0s

Barrier performed 0 iterations in 0.05 seconds (0.04 work units)
Barrier solve interrupted - model solved by another algorithm


Solved with dual simplex
Iteration    Objective       Primal Inf.    Dual Inf.      Time
     930    1.9800000e+03   0.000000e+00   0.000000e+00      0s

Use crossover to convert LP symmetric solution to basic solution...
Crossover log...

     120 PPushes remaining with PInf 0.0000000e+00                 0s
       0 PPushes remaining with PInf 0.0000000e+00                 0s

  Push phase complete: Pinf 0.0000000e+00, Dinf 0.0000000e+00      0s

Iteration    Objective       Primal Inf.    Dual Inf.      Time
    1053    1.9800000e+03   0.000000e+00   0.000000e+00      0s

Solved in 1053 iterations and 0.08 seconds (0.06 work units)
Optimal objective  1.980000000e+03
